unsat
(define-fun f ((x (_ BitVec 64))) (_ BitVec 64) (im (bvand #b0000000000000000000000000000000000000000000000000000000000000001 x) #b0000000000000000000000000000000000000000000000000000000000000010 (bvnot (shesh (arba x)))))
0.04user 0.00system 0:00.04elapsed 97%CPU (0avgtext+0avgdata 26944maxresident)k
0inputs+8outputs (0major+1370minor)pagefaults 0swaps
